(declare-fun v2 () (_ BitVec 2))
(declare-fun v15 () (_ BitVec 5))
(assert
(let (($e8 (_ bv86 7)))
(let (($e297 (concat false v15)))
(let (($e301 (concat false $e297)))
(let (($e302 (bvand        $e8         $e301 )))
(let (($e456 (concat v15 v2)))
(let (($e457 (bvand $e456 $e302)))
(let (($e676 (   extract      $e301)))
             (ite        $e676  $e457 $e302)
                                                                                                                                                                                                                                                                                                                                                                                                                                                                                                                                                                                                                                                                                                                                                                                                                                                                                                                                                                                                                                                                                                                                                                                                                                                                                                                                                                                                                                                                                                                                                                                                                                                                                                                                                                                                                                                                                                                                                                                                                                                                                                                                                                                                                                                                                                                                                                                                                                                                                                                                                                                                                                                                                                                                                                                                                                                                                                                                                                                                                                                                                                                                                                                                                                                                                                                                                                                                                                                                                                                                                                                                                                                                      )                                                                                                                                                                                                                          ))                                                                                                                                                         ))   )                                                                                                                                                                                                                                                                    )       )
